### SET
param n := 7;
param N := 14;


### PARAMETERS
param y_i :=
 1 0.01
 2 0.10
 3 0.1
 4 0.08
 5 0.02
 6 0.12
 7 0.28
 8 0.04
 9 0.06
 10 0.10
 11 0.02
 12 0.03
 13 0.01
 14 0.03;